73
120
96	15
95	11
94	19
93	14
92	15
91	7
90	13
89	11
88	12
87	16
86	8
85	16
84	13
83	14
82	13
81	14
80	11
79	13
78	7
77	12
76	18
75	17
74	13
73	11
72	14
71	13
70	18
69	15
68	10
67	13
66	14
65	9
64	16
63	14
62	17
61	19
60	23
59	9
58	20
57	12
56	21
55	10
54	10
53	15
52	8
51	12
50	21
49	11
48	15
47	19
46	17
45	16
44	15
43	14
42	12
41	11
40	16
39	15
38	11
37	15
36	12
35	6
34	11
33	9
32	9
31	17
30	21
29	8
28	17
27	13
26	12
25	16
24	16
